27	3	3
4	6	5	44	66	27	
0	0	0	0	10	8	6	5	10	2	25	2	3	4	5	6	7	8	9	10	11	12	13	14	15	16	17	18	19	20	21	22	23	24	25	26
2	2	3	0	1	7	6	1	3	6	4	27	21	24	9
5	2	3	2	8	8	9	8	4	3	2	27	15
4	1	0	1	6	7	2	9	4	8	5	27	15	16	20	19
5	2	1	0	5	1	9	1	7	10	4	27	23	26	22
2	2	1	1	1	6	7	6	1	7	6	27	22	16	10	9	8
3	2	3	1	8	1	4	3	2	6	5	27	18	14	22	24
1	2	3	0	9	10	4	7	7	7	4	27	21	20	19
3	1	2	1	10	3	3	1	2	6	3	27	13	14
2	2	2	0	9	6	7	7	6	3	3	27	24	23
2	1	2	0	6	7	9	3	2	9	3	27	15	17
2	1	0	2	10	9	9	3	2	1	3	27	20	19
2	0	0	2	9	10	10	2	7	6	3	27	16	14
5	0	0	1	9	6	9	1	6	10	4	27	18	26	16
3	0	0	2	7	4	6	3	1	2	1	27
2	1	0	2	6	6	8	4	9	10	2	27	22
4	0	0	2	2	8	9	10	10	10	2	27	21
3	1	0	2	10	8	10	10	10	6	2	27	23
5	2	1	0	5	8	1	4	9	7	1	27
5	1	0	1	3	6	1	8	9	1	3	27	24	25
1	1	3	1	9	4	7	6	7	5	1	27
3	0	2	2	5	8	2	4	8	2	2	27	26
2	2	2	2	3	7	10	2	6	9	1	27
3	0	0	0	8	1	7	9	5	5	2	27	25
3	0	3	1	5	7	1	6	5	9	1	27
3	2	1	2	6	3	2	3	9	8	1	27
0	0	0	0	8	4	6	10	7	3	0
